c Output_time 26.03.2020 18:15:36_+0100 1585242936381785193
c ** Program information **
c program_name                          "QBRG_debug"
c version                               "0.3.20"
c date                                  "25.3.2020"
c gid_id                                "673970833836058123f633335630c185360d632e"
c author                                "Oliver Kullmann"
c url                                   "https://github.com/OKullmann/oklibrary/blob/master/Satisfiability/Transformers/Generators/Random/QBRG.cpp"
c ** Machine information **
c machine_name                          "chyna-Lenovo-G50-70"
c bogomips                              3791.08
c ** Compilation information **
c compiler_version                      "g++ 7.5.0"
c compilation_date                      "Mar_26_2020 11:16:30"
c compilation_options                   "--std=c++17 -pedantic -fmax-errors=5 -Wall -Wextra -g -D_GLIBCXX_DEBUG"
c NDEBUG                                0
c OPTIMIZE                              0
c ** Parameters **
c command-line                          "./QBRG_debug" "a40 e40 a40 40" "666*1,1|2-2,1|3-3,1|4-4,1" "" "1,t" ""
c output                                "QuBlRaGe_160_666_1585242936267656940.qdimacs"
c options                               "filtered,renamed"
c num_quantifier_blocks                 4
c  quantifier_blocks                    1:a1-40 2:e41-80 3:a81-120 4:e121-160
c num_clause-blocks                     1
c  clause-blocks                        666 * {1-40,1,1/2} | {41-80,1,1/2} | {81-120,1,1/2} | {121-160,1,1/2}
c num_e-seeds                           37+2=39
c  e-seeds                              1 0 1 0 5 160 2 40 0 40 1 40 0 40 1 666 4 1 1 1 1 2 2 2 1 1 2 3 3 1 1 2 4 4 1 1 2 1 1585242936267655902
p cnf 160 666
a 1 2 3 4 5 6 7 8 9 10 11 12 13 14 15 16 17 18 19 20 21 22 23 24 25 26 27 28 29 30 31 32 33 34 35 36 37 38 39 40 0
e 41 42 43 44 45 46 47 48 49 50 51 52 53 54 55 56 57 58 59 60 61 62 63 64 65 66 67 68 69 70 71 72 73 74 75 76 77 78 79 80 0
a 81 82 83 84 85 86 87 88 89 90 91 92 93 94 95 96 97 98 99 100 101 102 103 104 105 106 107 108 109 110 111 112 113 114 115 116 117 118 119 120 0
e 121 122 123 124 125 126 127 128 129 130 131 132 133 134 135 136 137 138 139 140 141 142 143 144 145 146 147 148 149 150 151 152 153 154 155 156 157 158 159 160 0
-17 51 81 -121 0
22 -63 -82 -121 0
15 -67 85 -121 0
29 -77 94 -121 0
-3 -42 -100 -121 0
5 -52 -108 -121 0
-6 68 -110 -121 0
31 44 -120 -121 0
11 54 89 121 0
-13 -72 -91 121 0
7 -54 91 121 0
17 -65 93 121 0
35 -43 -97 121 0
6 -46 -98 121 0
29 -48 103 121 0
-31 -74 103 121 0
30 -75 -104 121 0
9 62 108 121 0
21 73 109 121 0
1 -80 -110 121 0
-18 -59 115 121 0
-39 -80 115 121 0
-23 78 120 121 0
24 68 83 -122 0
31 -65 87 -122 0
-18 54 106 -122 0
-31 77 -108 -122 0
-19 41 111 -122 0
-33 52 -117 -122 0
35 -47 81 122 0
38 -63 -84 122 0
-38 66 -87 122 0
7 68 102 122 0
-7 -63 -103 122 0
24 65 103 122 0
14 49 106 122 0
24 55 115 122 0
-36 42 -116 122 0
25 -65 -118 122 0
-2 -80 85 -123 0
36 50 -87 -123 0
-34 44 98 -123 0
34 -47 99 -123 0
-7 -65 114 -123 0
1 41 -116 -123 0
-3 -69 -119 -123 0
-27 -49 -84 123 0
30 71 87 123 0
-12 65 -97 123 0
-27 50 -100 123 0
-14 79 100 123 0
-1 52 -107 123 0
-40 56 107 123 0
-30 -56 -110 123 0
27 -55 -118 123 0
4 -63 -82 -124 0
22 46 88 -124 0
-27 43 93 -124 0
9 54 -96 -124 0
-13 71 -97 -124 0
-26 -75 -97 -124 0
38 60 97 -124 0
20 -74 98 -124 0
-7 74 -102 -124 0
-7 75 -104 -124 0
-4 77 107 -124 0
-30 -66 116 -124 0
1 -54 -119 -124 0
-21 49 -82 124 0
-6 57 92 124 0
-23 -49 -96 124 0
-15 -47 97 124 0
-21 61 98 124 0
28 -49 106 124 0
-26 61 106 124 0
9 80 -113 124 0
30 62 116 124 0
36 80 120 124 0
8 -62 -86 -125 0
39 -51 92 -125 0
25 -71 98 -125 0
21 -69 101 -125 0
31 74 101 -125 0
16 46 119 -125 0
-17 -57 -116 125 0
2 -48 84 -126 0
-30 69 -87 -126 0
-17 -52 -93 -126 0
-15 -68 99 -126 0
-4 -59 -103 -126 0
-31 -75 -119 -126 0
-13 55 -120 -126 0
-21 -46 108 126 0
-1 -45 82 -127 0
30 -52 88 -127 0
-14 52 -105 -127 0
-27 77 106 -127 0
-22 -42 -119 -127 0
-25 66 92 127 0
-12 -64 -100 127 0
-21 -70 -105 127 0
-3 59 106 127 0
-4 44 110 127 0
-2 44 -115 127 0
-8 -70 87 -128 0
-27 -52 -88 -128 0
16 -44 92 -128 0
17 74 -95 -128 0
-37 45 96 -128 0
-1 -42 -99 -128 0
-32 -55 -100 -128 0
-22 -74 -100 -128 0
-19 -78 103 -128 0
22 -64 -106 -128 0
-23 -50 -113 -128 0
-21 43 113 -128 0
32 67 -116 -128 0
-31 48 116 -128 0
-25 66 116 -128 0
31 54 -117 -128 0
-33 -43 -119 -128 0
-20 65 -120 -128 0
28 78 -81 128 0
-2 -64 -98 128 0
-5 -54 98 128 0
31 -41 83 -129 0
-39 57 -86 -129 0
-21 -70 92 -129 0
-32 -59 -95 -129 0
4 -58 96 -129 0
-7 -58 102 -129 0
11 -55 -104 -129 0
-18 80 105 -129 0
-23 45 106 -129 0
-37 65 -110 -129 0
10 67 -115 -129 0
-5 -53 -85 129 0
-32 57 -92 129 0
-5 -72 100 129 0
-16 56 -101 129 0
-16 70 -109 129 0
20 48 110 129 0
12 -59 -115 129 0
-39 46 -116 129 0
19 79 -116 129 0
30 56 -90 -130 0
-23 67 -104 -130 0
-18 42 105 -130 0
36 -43 -111 -130 0
-36 -47 111 -130 0
15 -53 -115 -130 0
-18 -57 -116 -130 0
26 -65 92 130 0
-31 76 -93 130 0
-29 79 -95 130 0
-7 -57 100 130 0
-31 62 -101 130 0
2 -44 -104 130 0
-31 51 -106 130 0
-30 -61 -107 130 0
26 -57 -116 130 0
-26 43 -119 130 0
-5 -67 -81 -131 0
-9 -62 81 -131 0
-13 -72 83 -131 0
-8 -70 -86 -131 0
-4 -69 -99 -131 0
-23 73 -103 -131 0
36 -77 -93 131 0
34 -75 96 131 0
3 77 99 131 0
-5 -70 113 131 0
15 56 -117 131 0
-33 -60 -117 131 0
22 -61 88 -132 0
13 70 -107 -132 0
-30 -74 -109 -132 0
13 71 -112 -132 0
-22 -47 115 -132 0
-27 -43 117 -132 0
-20 -52 -119 -132 0
4 -47 92 132 0
-19 -45 -98 132 0
35 49 102 132 0
7 -62 106 132 0
11 -46 -107 132 0
-1 76 -108 132 0
-37 60 114 132 0
-15 49 115 132 0
-25 -44 -118 132 0
-36 68 86 -133 0
-18 71 86 -133 0
-14 54 -91 -133 0
-28 -68 110 -133 0
-40 -73 111 -133 0
31 69 113 -133 0
-34 -60 94 133 0
-20 -77 94 133 0
-33 -48 101 133 0
11 79 -105 133 0
-28 57 -107 133 0
-26 -61 -111 133 0
8 52 116 133 0
-39 -54 -120 133 0
-25 -51 94 -134 0
34 -59 97 -134 0
-36 -51 -108 -134 0
-36 70 115 -134 0
28 72 -117 -134 0
29 -64 86 134 0
-37 -65 -89 134 0
40 70 92 134 0
29 -70 -99 134 0
23 56 104 134 0
-33 -69 -110 134 0
-29 -63 116 134 0
-19 -45 -81 -135 0
29 -44 -92 -135 0
-13 -60 105 -135 0
-8 -58 -108 -135 0
-40 -53 110 -135 0
-29 -60 112 -135 0
18 63 115 -135 0
40 -72 -118 -135 0
15 64 84 135 0
10 59 -87 135 0
-5 54 88 135 0
-10 71 89 135 0
-37 70 101 135 0
-39 -65 -106 135 0
22 -68 -114 135 0
-17 -62 119 135 0
-13 79 86 -136 0
18 -59 -87 -136 0
-30 -68 -87 -136 0
-7 -75 -93 -136 0
-20 44 102 -136 0
-38 78 103 -136 0
-26 71 108 -136 0
-33 56 -112 -136 0
-31 42 -119 -136 0
29 -69 82 136 0
-19 -41 84 136 0
-31 55 -85 136 0
-22 57 89 136 0
19 59 -94 136 0
1 58 -98 136 0
-13 -64 100 136 0
-4 -78 -105 136 0
-14 48 108 136 0
10 -52 -112 136 0
-37 -78 114 136 0
30 -77 115 136 0
39 -75 -118 136 0
-6 61 82 -137 0
30 -69 88 -137 0
5 -64 94 -137 0
-29 44 96 -137 0
-13 54 107 -137 0
29 -60 107 -137 0
-17 53 -108 -137 0
-16 48 -109 -137 0
16 -54 -109 -137 0
29 -79 109 -137 0
-13 -80 -120 -137 0
-28 -58 82 137 0
23 80 -88 137 0
-2 -79 90 137 0
3 -46 -98 137 0
-36 78 -104 137 0
16 78 -109 137 0
32 -58 -83 -138 0
-15 -58 83 -138 0
-20 -77 83 -138 0
21 -69 -86 -138 0
29 62 93 -138 0
-36 44 104 -138 0
-30 59 -106 -138 0
1 -64 -116 -138 0
37 69 117 -138 0
-23 -80 117 -138 0
26 59 -82 138 0
7 -80 -82 -139 0
16 51 82 -139 0
3 -71 83 -139 0
15 -59 86 -139 0
-14 63 87 -139 0
-3 79 -90 -139 0
-11 54 91 -139 0
-21 57 95 -139 0
29 77 97 -139 0
-28 68 -105 -139 0
2 -79 -106 -139 0
-18 79 -112 -139 0
-16 75 -117 -139 0
23 -73 119 -139 0
-16 -60 -120 -139 0
6 -57 82 139 0
34 -46 -91 139 0
28 62 -91 139 0
-13 -68 -92 139 0
36 57 97 139 0
-31 76 105 139 0
12 42 106 139 0
-9 -68 109 139 0
-27 44 -119 139 0
23 73 90 -140 0
-2 -66 93 -140 0
-17 43 -101 -140 0
16 -68 105 -140 0
-2 -52 117 -140 0
30 -69 94 140 0
-12 70 96 140 0
-27 62 -99 140 0
18 43 -107 140 0
36 71 -107 140 0
40 -54 108 140 0
-17 58 113 140 0
7 70 86 -141 0
24 77 87 -141 0
-17 64 -93 -141 0
-40 -60 93 -141 0
8 63 -104 -141 0
14 57 -105 -141 0
18 -68 -107 -141 0
-35 43 111 -141 0
-5 -71 -118 -141 0
30 68 119 -141 0
-13 58 -120 -141 0
36 -77 -81 141 0
-17 -43 -85 141 0
-3 79 -89 141 0
25 -62 89 141 0
32 -65 91 141 0
-33 -63 95 141 0
34 -75 -82 -142 0
4 -80 85 -142 0
-28 76 -86 -142 0
-25 75 -90 -142 0
-25 -63 -95 -142 0
39 -63 -95 -142 0
-13 -67 -100 -142 0
14 78 -106 -142 0
-22 -49 -110 -142 0
36 -76 110 -142 0
-14 -44 -117 -142 0
-8 58 119 -142 0
-2 -61 -86 142 0
37 -54 90 142 0
-23 46 100 142 0
-13 -50 -84 -143 0
-31 -62 87 -143 0
-34 -77 87 -143 0
26 70 100 -143 0
17 76 104 -143 0
-16 45 -105 -143 0
1 -52 -107 -143 0
-15 73 114 -143 0
-3 72 -120 -143 0
-40 -78 -81 143 0
-29 -71 -89 143 0
-14 66 93 143 0
-32 -55 -99 143 0
-3 -53 100 143 0
-13 -72 -101 143 0
7 -61 105 143 0
27 41 116 143 0
-34 73 -118 143 0
-19 56 93 -144 0
23 79 103 -144 0
11 -50 113 -144 0
-4 -73 -93 144 0
-40 -57 95 144 0
24 67 96 144 0
-31 -61 99 144 0
7 54 107 144 0
-27 49 -111 144 0
11 66 120 144 0
-32 75 -85 -145 0
25 48 100 -145 0
27 42 -102 -145 0
-38 -43 110 -145 0
-19 41 113 -145 0
-21 70 -114 -145 0
-17 41 -88 145 0
40 -67 91 145 0
-3 51 96 145 0
10 -59 -100 145 0
-16 42 -101 145 0
22 -70 -105 145 0
-13 -78 107 145 0
-32 78 -111 145 0
7 65 -113 145 0
17 57 117 145 0
-1 62 -119 145 0
-36 54 -81 -146 0
-6 -80 85 -146 0
-2 -52 -86 -146 0
-3 43 88 -146 0
5 -45 -91 -146 0
7 65 91 -146 0
-18 46 -101 -146 0
-7 -78 -105 -146 0
-35 -47 -107 -146 0
-39 -80 112 -146 0
-13 -53 114 -146 0
-9 -51 -84 146 0
26 -47 86 146 0
-27 54 86 146 0
-33 43 -91 146 0
-20 -50 91 146 0
18 41 92 146 0
3 71 94 146 0
-4 -45 -95 146 0
-34 75 -102 146 0
-32 -70 -108 146 0
29 80 -111 146 0
-19 -50 -116 146 0
-13 -68 -116 146 0
19 79 -83 -147 0
6 -63 83 -147 0
11 54 -85 -147 0
33 41 -96 -147 0
-17 -74 100 -147 0
14 -59 -101 -147 0
40 -76 105 -147 0
29 -65 -110 -147 0
31 -69 -111 -147 0
9 -78 -117 -147 0
-16 -59 117 -147 0
-36 67 119 -147 0
35 77 -81 147 0
19 -51 87 147 0
-15 -73 89 147 0
-21 -50 90 147 0
-1 58 -100 147 0
20 -62 106 147 0
26 -73 107 147 0
-5 53 -115 147 0
17 -48 -81 -148 0
-24 -79 82 -148 0
-2 -73 89 -148 0
-39 -49 97 -148 0
20 76 99 -148 0
-11 45 101 -148 0
39 46 114 -148 0
-31 -68 -115 -148 0
2 -49 119 -148 0
-7 -41 -85 148 0
13 -49 88 148 0
19 50 88 148 0
-4 62 89 148 0
17 67 89 148 0
7 58 -97 148 0
15 77 97 148 0
6 69 107 148 0
23 -52 109 148 0
-33 42 110 148 0
22 -71 -112 148 0
24 -53 114 148 0
-6 -46 119 148 0
-28 -62 82 -149 0
-5 -79 87 -149 0
-7 -73 -93 -149 0
-27 -78 -100 -149 0
-7 -52 104 -149 0
-18 57 -108 -149 0
-20 -73 -109 -149 0
-28 56 -114 -149 0
-37 47 116 -149 0
-34 77 -81 149 0
34 -43 91 149 0
20 68 97 149 0
23 -42 103 149 0
-6 44 -106 149 0
-11 53 110 149 0
-16 -54 -119 149 0
17 73 82 -150 0
6 -46 89 -150 0
-10 48 90 -150 0
6 56 -97 -150 0
35 -48 98 -150 0
26 59 -101 -150 0
-36 48 -112 -150 0
-32 -52 116 -150 0
4 -74 -119 -150 0
9 73 86 150 0
-3 -45 -91 150 0
5 57 91 150 0
-33 -62 95 150 0
36 -46 104 150 0
-27 62 -83 -151 0
-4 -58 84 -151 0
31 45 90 -151 0
-29 -48 -98 -151 0
16 -55 101 -151 0
-14 49 -103 -151 0
-4 -51 -111 -151 0
-17 -67 -114 -151 0
-34 -41 81 151 0
-15 51 91 151 0
40 46 93 151 0
33 49 102 151 0
20 61 -104 151 0
-7 -67 -107 151 0
-15 -61 109 151 0
37 -42 82 -152 0
34 50 83 -152 0
26 51 87 -152 0
15 -75 92 -152 0
18 -59 -97 -152 0
15 -76 102 -152 0
33 72 -104 -152 0
-37 -61 117 -152 0
25 42 119 -152 0
-15 -59 82 152 0
22 -44 86 152 0
24 52 -91 152 0
28 -57 -93 152 0
7 53 -97 152 0
2 71 -97 152 0
38 -54 -112 152 0
10 -55 114 152 0
-19 -63 -118 152 0
33 77 81 -153 0
23 43 100 -153 0
-20 -73 -101 -153 0
14 52 104 -153 0
40 -59 105 -153 0
-18 -57 -106 -153 0
-40 77 107 -153 0
-25 64 -111 -153 0
-32 66 86 153 0
-24 -76 89 153 0
23 72 95 153 0
-20 50 96 153 0
-28 -79 96 153 0
24 -78 100 153 0
-27 73 103 153 0
33 56 106 153 0
16 -67 111 153 0
34 56 -112 153 0
7 -75 -85 -154 0
-16 60 -86 -154 0
-32 41 96 -154 0
-1 -74 -97 -154 0
-12 60 -98 -154 0
-14 57 -107 -154 0
6 -80 -108 -154 0
-13 -70 114 -154 0
-30 66 -118 -154 0
36 -44 -119 -154 0
-7 -53 -84 154 0
-40 -74 -84 154 0
28 55 84 154 0
7 -69 -86 154 0
2 53 103 154 0
7 -48 106 154 0
-17 60 -113 154 0
33 -67 -118 154 0
17 -72 -119 154 0
9 65 83 -155 0
18 69 -85 -155 0
-33 77 -92 -155 0
16 -78 -93 -155 0
17 -49 101 -155 0
-31 -42 105 -155 0
-38 -53 -112 -155 0
34 80 -112 -155 0
-30 -61 117 -155 0
35 77 -118 -155 0
-17 43 -120 -155 0
24 -53 -81 155 0
32 50 83 155 0
1 -79 -85 155 0
20 -46 99 155 0
15 -78 109 155 0
-13 64 -113 155 0
18 47 -86 -156 0
14 71 89 -156 0
12 -56 90 -156 0
-24 -64 -98 -156 0
22 75 98 -156 0
6 44 101 -156 0
8 62 -106 -156 0
-28 54 112 -156 0
-18 -58 -117 -156 0
9 -50 118 -156 0
-19 -41 119 -156 0
-20 80 120 -156 0
14 66 -85 156 0
-17 70 88 156 0
-35 -69 -92 156 0
1 -74 -92 156 0
-32 69 97 156 0
11 -48 101 156 0
-40 43 -108 156 0
1 -56 -109 156 0
-27 -64 -111 156 0
7 -73 111 156 0
2 75 111 156 0
-9 41 -114 156 0
-37 75 -116 156 0
9 -67 -117 156 0
31 -58 -81 -157 0
-38 -45 90 -157 0
-14 46 93 -157 0
10 80 98 -157 0
-29 45 118 -157 0
-7 72 -82 157 0
-21 80 -85 157 0
29 57 -94 157 0
-28 62 -106 157 0
4 44 107 157 0
13 -52 -111 157 0
10 77 111 157 0
8 -47 -112 157 0
23 43 86 -158 0
35 74 89 -158 0
-28 -73 93 -158 0
21 -41 -100 -158 0
35 41 -113 -158 0
33 -70 -120 -158 0
-2 47 120 -158 0
39 53 -81 158 0
3 61 -90 158 0
-39 -71 -92 158 0
14 43 97 158 0
1 46 99 158 0
30 55 -108 158 0
37 58 114 158 0
-14 79 115 158 0
27 68 -119 158 0
-36 -53 91 -159 0
18 -79 -98 -159 0
24 -61 -99 -159 0
12 45 -100 -159 0
38 56 -108 -159 0
-17 42 108 -159 0
40 50 -110 -159 0
-22 45 111 -159 0
-3 -64 -119 -159 0
-36 43 119 -159 0
22 45 -120 -159 0
-1 -51 81 159 0
-14 -47 93 159 0
23 -74 96 159 0
-7 59 100 159 0
27 44 -102 159 0
11 -73 111 159 0
5 63 -112 159 0
29 -45 -113 159 0
-18 -55 82 -160 0
3 -71 83 -160 0
-17 53 84 -160 0
-28 -78 91 -160 0
-23 -53 96 -160 0
-34 -52 103 -160 0
-25 -45 -114 -160 0
-40 58 -120 -160 0
-30 51 88 160 0
-24 -79 96 160 0
3 -46 104 160 0
10 77 115 160 0
-28 50 116 160 0
14 63 -118 160 0
